min: 1.0Emax;
1.0Emax >= 1.0E_0;
1.0Emax >= 1.0E_1;
1.0Emax >= 1.0E_2;
1.0Emax >= 1.0E_3;
1.0Emax >= 1.0E_4;
1.0Emax >= 1.0E_5;
1.0Emax >= 1.0E_6;
1.0Emax >= 1.0E_7;
1.0Emax >= 1.0E_8;
1.0Emax >= 1.0E_9;
1.0Emax >= 1.0E_10;
1.0Emax >= 1.0E_11;
1.0Emax >= 1.0E_12;
1.0Emax >= 1.0E_13;
1.0Emax >= 1.0E_14;
1.0Emax >= 1.0E_15;
1.0E_0 >= 10.0;
1.0E_1 >= 10.0;
1.0E_2 >= 10.0;
1.0E_3 >= 7.0;
1.0E_4 >= 7.0;
1.0E_5 >= 3600.0X_5_ovensub1 + 3600.0X_5_ovensub2;
1.0E_6 >= 1500.0X_6_ovensub1 + 1500.0X_6_ovensub2;
1.0E_7 >= 5.0;
1.0E_8 >= 5.0;
1.0E_9 >= 10.0;
1.0E_10 >= 10.0;
1.0E_11 >= 60.0X_11_hobsub1 + 60.0X_11_hobsub2 + 60.0X_11_ovensub1 + 60.0X_11_ovensub2;
1.0E_12 >= 7.0;
1.0E_13 >= 7.0;
1.0E_14 >= 600.0X_14_hobsub1 + 600.0X_14_hobsub2 + 600.0X_14_ovensub1 + 600.0X_14_ovensub2;
1.0E_15 >= 5.0;
1.0E_3 >= 1.0E_1 + 7.0;
1.0E_3 >= 1.0E_2 + 7.0;
1.0E_4 >= 1.0E_0 + 7.0;
1.0E_4 >= 1.0E_3 + 7.0;
1.0E_5 >= 1.0E_4 + 3600.0X_5_ovensub1 + 3600.0X_5_ovensub2;
1.0E_6 >= 1.0E_5 + 1500.0X_6_ovensub1 + 1500.0X_6_ovensub2;
1.0E_7 >= 1.0E_6 + 5.0;
1.0E_8 >= 1.0E_6 + 5.0;
1.0E_11 >= 1.0E_8 + 60.0X_11_hobsub1 + 60.0X_11_hobsub2 + 60.0X_11_ovensub1 + 60.0X_11_ovensub2;
1.0E_12 >= 1.0E_10 + 7.0;
1.0E_12 >= 1.0E_11 + 7.0;
1.0E_13 >= 1.0E_9 + 7.0;
1.0E_13 >= 1.0E_12 + 7.0;
1.0E_14 >= 1.0E_13 + 600.0X_14_hobsub1 + 600.0X_14_hobsub2 + 600.0X_14_ovensub1 + 600.0X_14_ovensub2;
1.0E_15 >= 1.0E_7 + 5.0;
1.0E_15 >= 1.0E_14 + 5.0;
1.0X_5_ovensub1 + 1.0X_5_ovensub2 = 1.0;
1.0X_6_ovensub1 + 1.0X_6_ovensub2 = 1.0;
1.0X_11_hobsub1 + 1.0X_11_hobsub2 + 1.0X_11_ovensub1 + 1.0X_11_ovensub2 = 1.0;
1.0X_14_hobsub1 + 1.0X_14_hobsub2 + 1.0X_14_ovensub1 + 1.0X_14_ovensub2 = 1.0;
1.0O_5_6 + 1.0 >= 1.0X_5_ovensub1 + 1.0X_6_ovensub1;
1.0O_5_6 + 1.0 >= 1.0X_5_ovensub2 + 1.0X_6_ovensub2;
1.0O_5_11 + 1.0 >= 1.0X_5_ovensub1 + 1.0X_11_ovensub1;
1.0O_5_11 + 1.0 >= 1.0X_5_ovensub2 + 1.0X_11_ovensub2;
1.0O_5_14 + 1.0 >= 1.0X_5_ovensub1 + 1.0X_14_ovensub1;
1.0O_5_14 + 1.0 >= 1.0X_5_ovensub2 + 1.0X_14_ovensub2;
1.0O_6_5 + 1.0 >= 1.0X_6_ovensub1 + 1.0X_5_ovensub1;
1.0O_6_5 + 1.0 >= 1.0X_6_ovensub2 + 1.0X_5_ovensub2;
1.0O_6_11 + 1.0 >= 1.0X_6_ovensub1 + 1.0X_11_ovensub1;
1.0O_6_11 + 1.0 >= 1.0X_6_ovensub2 + 1.0X_11_ovensub2;
1.0O_6_14 + 1.0 >= 1.0X_6_ovensub1 + 1.0X_14_ovensub1;
1.0O_6_14 + 1.0 >= 1.0X_6_ovensub2 + 1.0X_14_ovensub2;
1.0O_11_5 + 1.0 >= 1.0X_11_ovensub1 + 1.0X_5_ovensub1;
1.0O_11_5 + 1.0 >= 1.0X_11_ovensub2 + 1.0X_5_ovensub2;
1.0O_11_6 + 1.0 >= 1.0X_11_ovensub1 + 1.0X_6_ovensub1;
1.0O_11_6 + 1.0 >= 1.0X_11_ovensub2 + 1.0X_6_ovensub2;
1.0O_11_14 + 1.0 >= 1.0X_11_hobsub1 + 1.0X_14_hobsub1;
1.0O_11_14 + 1.0 >= 1.0X_11_hobsub2 + 1.0X_14_hobsub2;
1.0O_11_14 + 1.0 >= 1.0X_11_ovensub1 + 1.0X_14_ovensub1;
1.0O_11_14 + 1.0 >= 1.0X_11_ovensub2 + 1.0X_14_ovensub2;
1.0O_14_5 + 1.0 >= 1.0X_14_ovensub1 + 1.0X_5_ovensub1;
1.0O_14_5 + 1.0 >= 1.0X_14_ovensub2 + 1.0X_5_ovensub2;
1.0O_14_6 + 1.0 >= 1.0X_14_ovensub1 + 1.0X_6_ovensub1;
1.0O_14_6 + 1.0 >= 1.0X_14_ovensub2 + 1.0X_6_ovensub2;
1.0O_14_11 + 1.0 >= 1.0X_14_hobsub1 + 1.0X_11_hobsub1;
1.0O_14_11 + 1.0 >= 1.0X_14_hobsub2 + 1.0X_11_hobsub2;
1.0O_14_11 + 1.0 >= 1.0X_14_ovensub1 + 1.0X_11_ovensub1;
1.0O_14_11 + 1.0 >= 1.0X_14_ovensub2 + 1.0X_11_ovensub2;
1.0E_0 >= 10.0 + 1.0E_1 - 9453.0 + 9453.0 - 9453.0Y_0_1;
1.0E_0 >= 10.0 + 1.0E_2 - 9453.0 + 9453.0 - 9453.0Y_0_2;
1.0E_0 >= 10.0 + 1.0E_3 - 9453.0 + 9453.0 - 9453.0Y_0_3;
1.0E_0 >= 10.0 + 1.0E_4 - 9453.0 + 9453.0 - 9453.0Y_0_4;
1.0E_0 >= 10.0 + 1.0E_7 - 9453.0 + 9453.0 - 9453.0Y_0_7;
1.0E_0 >= 10.0 + 1.0E_8 - 9453.0 + 9453.0 - 9453.0Y_0_8;
1.0E_0 >= 10.0 + 1.0E_9 - 9453.0 + 9453.0 - 9453.0Y_0_9;
1.0E_0 >= 10.0 + 1.0E_10 - 9453.0 + 9453.0 - 9453.0Y_0_10;
1.0E_0 >= 10.0 + 1.0E_12 - 9453.0 + 9453.0 - 9453.0Y_0_12;
1.0E_0 >= 10.0 + 1.0E_13 - 9453.0 + 9453.0 - 9453.0Y_0_13;
1.0E_0 >= 10.0 + 1.0E_15 - 9453.0 + 9453.0 - 9453.0Y_0_15;
1.0E_1 >= 10.0 + 1.0E_0 - 9453.0 + 9453.0 - 9453.0Y_1_0;
1.0E_1 >= 10.0 + 1.0E_2 - 9453.0 + 9453.0 - 9453.0Y_1_2;
1.0E_1 >= 10.0 + 1.0E_3 - 9453.0 + 9453.0 - 9453.0Y_1_3;
1.0E_1 >= 10.0 + 1.0E_4 - 9453.0 + 9453.0 - 9453.0Y_1_4;
1.0E_1 >= 10.0 + 1.0E_7 - 9453.0 + 9453.0 - 9453.0Y_1_7;
1.0E_1 >= 10.0 + 1.0E_8 - 9453.0 + 9453.0 - 9453.0Y_1_8;
1.0E_1 >= 10.0 + 1.0E_9 - 9453.0 + 9453.0 - 9453.0Y_1_9;
1.0E_1 >= 10.0 + 1.0E_10 - 9453.0 + 9453.0 - 9453.0Y_1_10;
1.0E_1 >= 10.0 + 1.0E_12 - 9453.0 + 9453.0 - 9453.0Y_1_12;
1.0E_1 >= 10.0 + 1.0E_13 - 9453.0 + 9453.0 - 9453.0Y_1_13;
1.0E_1 >= 10.0 + 1.0E_15 - 9453.0 + 9453.0 - 9453.0Y_1_15;
1.0E_2 >= 10.0 + 1.0E_0 - 9453.0 + 9453.0 - 9453.0Y_2_0;
1.0E_2 >= 10.0 + 1.0E_1 - 9453.0 + 9453.0 - 9453.0Y_2_1;
1.0E_2 >= 10.0 + 1.0E_3 - 9453.0 + 9453.0 - 9453.0Y_2_3;
1.0E_2 >= 10.0 + 1.0E_4 - 9453.0 + 9453.0 - 9453.0Y_2_4;
1.0E_2 >= 10.0 + 1.0E_7 - 9453.0 + 9453.0 - 9453.0Y_2_7;
1.0E_2 >= 10.0 + 1.0E_8 - 9453.0 + 9453.0 - 9453.0Y_2_8;
1.0E_2 >= 10.0 + 1.0E_9 - 9453.0 + 9453.0 - 9453.0Y_2_9;
1.0E_2 >= 10.0 + 1.0E_10 - 9453.0 + 9453.0 - 9453.0Y_2_10;
1.0E_2 >= 10.0 + 1.0E_12 - 9453.0 + 9453.0 - 9453.0Y_2_12;
1.0E_2 >= 10.0 + 1.0E_13 - 9453.0 + 9453.0 - 9453.0Y_2_13;
1.0E_2 >= 10.0 + 1.0E_15 - 9453.0 + 9453.0 - 9453.0Y_2_15;
1.0E_3 >= 7.0 + 1.0E_0 - 9453.0 + 9453.0 - 9453.0Y_3_0;
1.0E_3 >= 7.0 + 1.0E_1 - 9453.0 + 9453.0 - 9453.0Y_3_1;
1.0E_3 >= 7.0 + 1.0E_2 - 9453.0 + 9453.0 - 9453.0Y_3_2;
1.0E_3 >= 7.0 + 1.0E_4 - 9453.0 + 9453.0 - 9453.0Y_3_4;
1.0E_3 >= 7.0 + 1.0E_7 - 9453.0 + 9453.0 - 9453.0Y_3_7;
1.0E_3 >= 7.0 + 1.0E_8 - 9453.0 + 9453.0 - 9453.0Y_3_8;
1.0E_3 >= 7.0 + 1.0E_9 - 9453.0 + 9453.0 - 9453.0Y_3_9;
1.0E_3 >= 7.0 + 1.0E_10 - 9453.0 + 9453.0 - 9453.0Y_3_10;
1.0E_3 >= 7.0 + 1.0E_12 - 9453.0 + 9453.0 - 9453.0Y_3_12;
1.0E_3 >= 7.0 + 1.0E_13 - 9453.0 + 9453.0 - 9453.0Y_3_13;
1.0E_3 >= 7.0 + 1.0E_15 - 9453.0 + 9453.0 - 9453.0Y_3_15;
1.0E_4 >= 7.0 + 1.0E_0 - 9453.0 + 9453.0 - 9453.0Y_4_0;
1.0E_4 >= 7.0 + 1.0E_1 - 9453.0 + 9453.0 - 9453.0Y_4_1;
1.0E_4 >= 7.0 + 1.0E_2 - 9453.0 + 9453.0 - 9453.0Y_4_2;
1.0E_4 >= 7.0 + 1.0E_3 - 9453.0 + 9453.0 - 9453.0Y_4_3;
1.0E_4 >= 7.0 + 1.0E_7 - 9453.0 + 9453.0 - 9453.0Y_4_7;
1.0E_4 >= 7.0 + 1.0E_8 - 9453.0 + 9453.0 - 9453.0Y_4_8;
1.0E_4 >= 7.0 + 1.0E_9 - 9453.0 + 9453.0 - 9453.0Y_4_9;
1.0E_4 >= 7.0 + 1.0E_10 - 9453.0 + 9453.0 - 9453.0Y_4_10;
1.0E_4 >= 7.0 + 1.0E_12 - 9453.0 + 9453.0 - 9453.0Y_4_12;
1.0E_4 >= 7.0 + 1.0E_13 - 9453.0 + 9453.0 - 9453.0Y_4_13;
1.0E_4 >= 7.0 + 1.0E_15 - 9453.0 + 9453.0 - 9453.0Y_4_15;
1.0E_5 >= 3600.0X_5_ovensub1 + 3600.0X_5_ovensub2 + 1.0E_6 - 9453.0 + 9453.0O_5_6 - 9453.0Y_5_6;
1.0E_5 >= 3600.0X_5_ovensub1 + 3600.0X_5_ovensub2 + 1.0E_11 - 9453.0 + 9453.0O_5_11 - 9453.0Y_5_11;
1.0E_5 >= 3600.0X_5_ovensub1 + 3600.0X_5_ovensub2 + 1.0E_14 - 9453.0 + 9453.0O_5_14 - 9453.0Y_5_14;
1.0E_6 >= 1500.0X_6_ovensub1 + 1500.0X_6_ovensub2 + 1.0E_5 - 9453.0 + 9453.0O_6_5 - 9453.0Y_6_5;
1.0E_6 >= 1500.0X_6_ovensub1 + 1500.0X_6_ovensub2 + 1.0E_11 - 9453.0 + 9453.0O_6_11 - 9453.0Y_6_11;
1.0E_6 >= 1500.0X_6_ovensub1 + 1500.0X_6_ovensub2 + 1.0E_14 - 9453.0 + 9453.0O_6_14 - 9453.0Y_6_14;
1.0E_7 >= 5.0 + 1.0E_0 - 9453.0 + 9453.0 - 9453.0Y_7_0;
1.0E_7 >= 5.0 + 1.0E_1 - 9453.0 + 9453.0 - 9453.0Y_7_1;
1.0E_7 >= 5.0 + 1.0E_2 - 9453.0 + 9453.0 - 9453.0Y_7_2;
1.0E_7 >= 5.0 + 1.0E_3 - 9453.0 + 9453.0 - 9453.0Y_7_3;
1.0E_7 >= 5.0 + 1.0E_4 - 9453.0 + 9453.0 - 9453.0Y_7_4;
1.0E_7 >= 5.0 + 1.0E_8 - 9453.0 + 9453.0 - 9453.0Y_7_8;
1.0E_7 >= 5.0 + 1.0E_9 - 9453.0 + 9453.0 - 9453.0Y_7_9;
1.0E_7 >= 5.0 + 1.0E_10 - 9453.0 + 9453.0 - 9453.0Y_7_10;
1.0E_7 >= 5.0 + 1.0E_12 - 9453.0 + 9453.0 - 9453.0Y_7_12;
1.0E_7 >= 5.0 + 1.0E_13 - 9453.0 + 9453.0 - 9453.0Y_7_13;
1.0E_7 >= 5.0 + 1.0E_15 - 9453.0 + 9453.0 - 9453.0Y_7_15;
1.0E_8 >= 5.0 + 1.0E_0 - 9453.0 + 9453.0 - 9453.0Y_8_0;
1.0E_8 >= 5.0 + 1.0E_1 - 9453.0 + 9453.0 - 9453.0Y_8_1;
1.0E_8 >= 5.0 + 1.0E_2 - 9453.0 + 9453.0 - 9453.0Y_8_2;
1.0E_8 >= 5.0 + 1.0E_3 - 9453.0 + 9453.0 - 9453.0Y_8_3;
1.0E_8 >= 5.0 + 1.0E_4 - 9453.0 + 9453.0 - 9453.0Y_8_4;
1.0E_8 >= 5.0 + 1.0E_7 - 9453.0 + 9453.0 - 9453.0Y_8_7;
1.0E_8 >= 5.0 + 1.0E_9 - 9453.0 + 9453.0 - 9453.0Y_8_9;
1.0E_8 >= 5.0 + 1.0E_10 - 9453.0 + 9453.0 - 9453.0Y_8_10;
1.0E_8 >= 5.0 + 1.0E_12 - 9453.0 + 9453.0 - 9453.0Y_8_12;
1.0E_8 >= 5.0 + 1.0E_13 - 9453.0 + 9453.0 - 9453.0Y_8_13;
1.0E_8 >= 5.0 + 1.0E_15 - 9453.0 + 9453.0 - 9453.0Y_8_15;
1.0E_9 >= 10.0 + 1.0E_0 - 9453.0 + 9453.0 - 9453.0Y_9_0;
1.0E_9 >= 10.0 + 1.0E_1 - 9453.0 + 9453.0 - 9453.0Y_9_1;
1.0E_9 >= 10.0 + 1.0E_2 - 9453.0 + 9453.0 - 9453.0Y_9_2;
1.0E_9 >= 10.0 + 1.0E_3 - 9453.0 + 9453.0 - 9453.0Y_9_3;
1.0E_9 >= 10.0 + 1.0E_4 - 9453.0 + 9453.0 - 9453.0Y_9_4;
1.0E_9 >= 10.0 + 1.0E_7 - 9453.0 + 9453.0 - 9453.0Y_9_7;
1.0E_9 >= 10.0 + 1.0E_8 - 9453.0 + 9453.0 - 9453.0Y_9_8;
1.0E_9 >= 10.0 + 1.0E_10 - 9453.0 + 9453.0 - 9453.0Y_9_10;
1.0E_9 >= 10.0 + 1.0E_12 - 9453.0 + 9453.0 - 9453.0Y_9_12;
1.0E_9 >= 10.0 + 1.0E_13 - 9453.0 + 9453.0 - 9453.0Y_9_13;
1.0E_9 >= 10.0 + 1.0E_15 - 9453.0 + 9453.0 - 9453.0Y_9_15;
1.0E_10 >= 10.0 + 1.0E_0 - 9453.0 + 9453.0 - 9453.0Y_10_0;
1.0E_10 >= 10.0 + 1.0E_1 - 9453.0 + 9453.0 - 9453.0Y_10_1;
1.0E_10 >= 10.0 + 1.0E_2 - 9453.0 + 9453.0 - 9453.0Y_10_2;
1.0E_10 >= 10.0 + 1.0E_3 - 9453.0 + 9453.0 - 9453.0Y_10_3;
1.0E_10 >= 10.0 + 1.0E_4 - 9453.0 + 9453.0 - 9453.0Y_10_4;
1.0E_10 >= 10.0 + 1.0E_7 - 9453.0 + 9453.0 - 9453.0Y_10_7;
1.0E_10 >= 10.0 + 1.0E_8 - 9453.0 + 9453.0 - 9453.0Y_10_8;
1.0E_10 >= 10.0 + 1.0E_9 - 9453.0 + 9453.0 - 9453.0Y_10_9;
1.0E_10 >= 10.0 + 1.0E_12 - 9453.0 + 9453.0 - 9453.0Y_10_12;
1.0E_10 >= 10.0 + 1.0E_13 - 9453.0 + 9453.0 - 9453.0Y_10_13;
1.0E_10 >= 10.0 + 1.0E_15 - 9453.0 + 9453.0 - 9453.0Y_10_15;
1.0E_11 >= 60.0X_11_hobsub1 + 60.0X_11_hobsub2 + 60.0X_11_ovensub1 + 60.0X_11_ovensub2 + 1.0E_5 - 9453.0 + 9453.0O_11_5 - 9453.0Y_11_5;
1.0E_11 >= 60.0X_11_hobsub1 + 60.0X_11_hobsub2 + 60.0X_11_ovensub1 + 60.0X_11_ovensub2 + 1.0E_6 - 9453.0 + 9453.0O_11_6 - 9453.0Y_11_6;
1.0E_11 >= 60.0X_11_hobsub1 + 60.0X_11_hobsub2 + 60.0X_11_ovensub1 + 60.0X_11_ovensub2 + 1.0E_14 - 9453.0 + 9453.0O_11_14 - 9453.0Y_11_14;
1.0E_12 >= 7.0 + 1.0E_0 - 9453.0 + 9453.0 - 9453.0Y_12_0;
1.0E_12 >= 7.0 + 1.0E_1 - 9453.0 + 9453.0 - 9453.0Y_12_1;
1.0E_12 >= 7.0 + 1.0E_2 - 9453.0 + 9453.0 - 9453.0Y_12_2;
1.0E_12 >= 7.0 + 1.0E_3 - 9453.0 + 9453.0 - 9453.0Y_12_3;
1.0E_12 >= 7.0 + 1.0E_4 - 9453.0 + 9453.0 - 9453.0Y_12_4;
1.0E_12 >= 7.0 + 1.0E_7 - 9453.0 + 9453.0 - 9453.0Y_12_7;
1.0E_12 >= 7.0 + 1.0E_8 - 9453.0 + 9453.0 - 9453.0Y_12_8;
1.0E_12 >= 7.0 + 1.0E_9 - 9453.0 + 9453.0 - 9453.0Y_12_9;
1.0E_12 >= 7.0 + 1.0E_10 - 9453.0 + 9453.0 - 9453.0Y_12_10;
1.0E_12 >= 7.0 + 1.0E_13 - 9453.0 + 9453.0 - 9453.0Y_12_13;
1.0E_12 >= 7.0 + 1.0E_15 - 9453.0 + 9453.0 - 9453.0Y_12_15;
1.0E_13 >= 7.0 + 1.0E_0 - 9453.0 + 9453.0 - 9453.0Y_13_0;
1.0E_13 >= 7.0 + 1.0E_1 - 9453.0 + 9453.0 - 9453.0Y_13_1;
1.0E_13 >= 7.0 + 1.0E_2 - 9453.0 + 9453.0 - 9453.0Y_13_2;
1.0E_13 >= 7.0 + 1.0E_3 - 9453.0 + 9453.0 - 9453.0Y_13_3;
1.0E_13 >= 7.0 + 1.0E_4 - 9453.0 + 9453.0 - 9453.0Y_13_4;
1.0E_13 >= 7.0 + 1.0E_7 - 9453.0 + 9453.0 - 9453.0Y_13_7;
1.0E_13 >= 7.0 + 1.0E_8 - 9453.0 + 9453.0 - 9453.0Y_13_8;
1.0E_13 >= 7.0 + 1.0E_9 - 9453.0 + 9453.0 - 9453.0Y_13_9;
1.0E_13 >= 7.0 + 1.0E_10 - 9453.0 + 9453.0 - 9453.0Y_13_10;
1.0E_13 >= 7.0 + 1.0E_12 - 9453.0 + 9453.0 - 9453.0Y_13_12;
1.0E_13 >= 7.0 + 1.0E_15 - 9453.0 + 9453.0 - 9453.0Y_13_15;
1.0E_14 >= 600.0X_14_hobsub1 + 600.0X_14_hobsub2 + 600.0X_14_ovensub1 + 600.0X_14_ovensub2 + 1.0E_5 - 9453.0 + 9453.0O_14_5 - 9453.0Y_14_5;
1.0E_14 >= 600.0X_14_hobsub1 + 600.0X_14_hobsub2 + 600.0X_14_ovensub1 + 600.0X_14_ovensub2 + 1.0E_6 - 9453.0 + 9453.0O_14_6 - 9453.0Y_14_6;
1.0E_14 >= 600.0X_14_hobsub1 + 600.0X_14_hobsub2 + 600.0X_14_ovensub1 + 600.0X_14_ovensub2 + 1.0E_11 - 9453.0 + 9453.0O_14_11 - 9453.0Y_14_11;
1.0E_15 >= 5.0 + 1.0E_0 - 9453.0 + 9453.0 - 9453.0Y_15_0;
1.0E_15 >= 5.0 + 1.0E_1 - 9453.0 + 9453.0 - 9453.0Y_15_1;
1.0E_15 >= 5.0 + 1.0E_2 - 9453.0 + 9453.0 - 9453.0Y_15_2;
1.0E_15 >= 5.0 + 1.0E_3 - 9453.0 + 9453.0 - 9453.0Y_15_3;
1.0E_15 >= 5.0 + 1.0E_4 - 9453.0 + 9453.0 - 9453.0Y_15_4;
1.0E_15 >= 5.0 + 1.0E_7 - 9453.0 + 9453.0 - 9453.0Y_15_7;
1.0E_15 >= 5.0 + 1.0E_8 - 9453.0 + 9453.0 - 9453.0Y_15_8;
1.0E_15 >= 5.0 + 1.0E_9 - 9453.0 + 9453.0 - 9453.0Y_15_9;
1.0E_15 >= 5.0 + 1.0E_10 - 9453.0 + 9453.0 - 9453.0Y_15_10;
1.0E_15 >= 5.0 + 1.0E_12 - 9453.0 + 9453.0 - 9453.0Y_15_12;
1.0E_15 >= 5.0 + 1.0E_13 - 9453.0 + 9453.0 - 9453.0Y_15_13;
1.0E_1 >= 10.0 + 1.0E_0 - 9453.0 + 9453.0 - 9453.0 + 9453.0Y_0_1;
1.0E_2 >= 10.0 + 1.0E_0 - 9453.0 + 9453.0 - 9453.0 + 9453.0Y_0_2;
1.0E_3 >= 7.0 + 1.0E_0 - 9453.0 + 9453.0 - 9453.0 + 9453.0Y_0_3;
1.0E_4 >= 7.0 + 1.0E_0 - 9453.0 + 9453.0 - 9453.0 + 9453.0Y_0_4;
1.0E_7 >= 5.0 + 1.0E_0 - 9453.0 + 9453.0 - 9453.0 + 9453.0Y_0_7;
1.0E_8 >= 5.0 + 1.0E_0 - 9453.0 + 9453.0 - 9453.0 + 9453.0Y_0_8;
1.0E_9 >= 10.0 + 1.0E_0 - 9453.0 + 9453.0 - 9453.0 + 9453.0Y_0_9;
1.0E_10 >= 10.0 + 1.0E_0 - 9453.0 + 9453.0 - 9453.0 + 9453.0Y_0_10;
1.0E_12 >= 7.0 + 1.0E_0 - 9453.0 + 9453.0 - 9453.0 + 9453.0Y_0_12;
1.0E_13 >= 7.0 + 1.0E_0 - 9453.0 + 9453.0 - 9453.0 + 9453.0Y_0_13;
1.0E_15 >= 5.0 + 1.0E_0 - 9453.0 + 9453.0 - 9453.0 + 9453.0Y_0_15;
1.0E_0 >= 10.0 + 1.0E_1 - 9453.0 + 9453.0 - 9453.0 + 9453.0Y_1_0;
1.0E_2 >= 10.0 + 1.0E_1 - 9453.0 + 9453.0 - 9453.0 + 9453.0Y_1_2;
1.0E_3 >= 7.0 + 1.0E_1 - 9453.0 + 9453.0 - 9453.0 + 9453.0Y_1_3;
1.0E_4 >= 7.0 + 1.0E_1 - 9453.0 + 9453.0 - 9453.0 + 9453.0Y_1_4;
1.0E_7 >= 5.0 + 1.0E_1 - 9453.0 + 9453.0 - 9453.0 + 9453.0Y_1_7;
1.0E_8 >= 5.0 + 1.0E_1 - 9453.0 + 9453.0 - 9453.0 + 9453.0Y_1_8;
1.0E_9 >= 10.0 + 1.0E_1 - 9453.0 + 9453.0 - 9453.0 + 9453.0Y_1_9;
1.0E_10 >= 10.0 + 1.0E_1 - 9453.0 + 9453.0 - 9453.0 + 9453.0Y_1_10;
1.0E_12 >= 7.0 + 1.0E_1 - 9453.0 + 9453.0 - 9453.0 + 9453.0Y_1_12;
1.0E_13 >= 7.0 + 1.0E_1 - 9453.0 + 9453.0 - 9453.0 + 9453.0Y_1_13;
1.0E_15 >= 5.0 + 1.0E_1 - 9453.0 + 9453.0 - 9453.0 + 9453.0Y_1_15;
1.0E_0 >= 10.0 + 1.0E_2 - 9453.0 + 9453.0 - 9453.0 + 9453.0Y_2_0;
1.0E_1 >= 10.0 + 1.0E_2 - 9453.0 + 9453.0 - 9453.0 + 9453.0Y_2_1;
1.0E_3 >= 7.0 + 1.0E_2 - 9453.0 + 9453.0 - 9453.0 + 9453.0Y_2_3;
1.0E_4 >= 7.0 + 1.0E_2 - 9453.0 + 9453.0 - 9453.0 + 9453.0Y_2_4;
1.0E_7 >= 5.0 + 1.0E_2 - 9453.0 + 9453.0 - 9453.0 + 9453.0Y_2_7;
1.0E_8 >= 5.0 + 1.0E_2 - 9453.0 + 9453.0 - 9453.0 + 9453.0Y_2_8;
1.0E_9 >= 10.0 + 1.0E_2 - 9453.0 + 9453.0 - 9453.0 + 9453.0Y_2_9;
1.0E_10 >= 10.0 + 1.0E_2 - 9453.0 + 9453.0 - 9453.0 + 9453.0Y_2_10;
1.0E_12 >= 7.0 + 1.0E_2 - 9453.0 + 9453.0 - 9453.0 + 9453.0Y_2_12;
1.0E_13 >= 7.0 + 1.0E_2 - 9453.0 + 9453.0 - 9453.0 + 9453.0Y_2_13;
1.0E_15 >= 5.0 + 1.0E_2 - 9453.0 + 9453.0 - 9453.0 + 9453.0Y_2_15;
1.0E_0 >= 10.0 + 1.0E_3 - 9453.0 + 9453.0 - 9453.0 + 9453.0Y_3_0;
1.0E_1 >= 10.0 + 1.0E_3 - 9453.0 + 9453.0 - 9453.0 + 9453.0Y_3_1;
1.0E_2 >= 10.0 + 1.0E_3 - 9453.0 + 9453.0 - 9453.0 + 9453.0Y_3_2;
1.0E_4 >= 7.0 + 1.0E_3 - 9453.0 + 9453.0 - 9453.0 + 9453.0Y_3_4;
1.0E_7 >= 5.0 + 1.0E_3 - 9453.0 + 9453.0 - 9453.0 + 9453.0Y_3_7;
1.0E_8 >= 5.0 + 1.0E_3 - 9453.0 + 9453.0 - 9453.0 + 9453.0Y_3_8;
1.0E_9 >= 10.0 + 1.0E_3 - 9453.0 + 9453.0 - 9453.0 + 9453.0Y_3_9;
1.0E_10 >= 10.0 + 1.0E_3 - 9453.0 + 9453.0 - 9453.0 + 9453.0Y_3_10;
1.0E_12 >= 7.0 + 1.0E_3 - 9453.0 + 9453.0 - 9453.0 + 9453.0Y_3_12;
1.0E_13 >= 7.0 + 1.0E_3 - 9453.0 + 9453.0 - 9453.0 + 9453.0Y_3_13;
1.0E_15 >= 5.0 + 1.0E_3 - 9453.0 + 9453.0 - 9453.0 + 9453.0Y_3_15;
1.0E_0 >= 10.0 + 1.0E_4 - 9453.0 + 9453.0 - 9453.0 + 9453.0Y_4_0;
1.0E_1 >= 10.0 + 1.0E_4 - 9453.0 + 9453.0 - 9453.0 + 9453.0Y_4_1;
1.0E_2 >= 10.0 + 1.0E_4 - 9453.0 + 9453.0 - 9453.0 + 9453.0Y_4_2;
1.0E_3 >= 7.0 + 1.0E_4 - 9453.0 + 9453.0 - 9453.0 + 9453.0Y_4_3;
1.0E_7 >= 5.0 + 1.0E_4 - 9453.0 + 9453.0 - 9453.0 + 9453.0Y_4_7;
1.0E_8 >= 5.0 + 1.0E_4 - 9453.0 + 9453.0 - 9453.0 + 9453.0Y_4_8;
1.0E_9 >= 10.0 + 1.0E_4 - 9453.0 + 9453.0 - 9453.0 + 9453.0Y_4_9;
1.0E_10 >= 10.0 + 1.0E_4 - 9453.0 + 9453.0 - 9453.0 + 9453.0Y_4_10;
1.0E_12 >= 7.0 + 1.0E_4 - 9453.0 + 9453.0 - 9453.0 + 9453.0Y_4_12;
1.0E_13 >= 7.0 + 1.0E_4 - 9453.0 + 9453.0 - 9453.0 + 9453.0Y_4_13;
1.0E_15 >= 5.0 + 1.0E_4 - 9453.0 + 9453.0 - 9453.0 + 9453.0Y_4_15;
1.0E_6 >= 1500.0X_6_ovensub1 + 1500.0X_6_ovensub2 + 1.0E_5 - 9453.0 + 9453.0O_5_6 - 9453.0 + 9453.0Y_5_6;
1.0E_11 >= 60.0X_11_hobsub1 + 60.0X_11_hobsub2 + 60.0X_11_ovensub1 + 60.0X_11_ovensub2 + 1.0E_5 - 9453.0 + 9453.0O_5_11 - 9453.0 + 9453.0Y_5_11;
1.0E_14 >= 600.0X_14_hobsub1 + 600.0X_14_hobsub2 + 600.0X_14_ovensub1 + 600.0X_14_ovensub2 + 1.0E_5 - 9453.0 + 9453.0O_5_14 - 9453.0 + 9453.0Y_5_14;
1.0E_5 >= 3600.0X_5_ovensub1 + 3600.0X_5_ovensub2 + 1.0E_6 - 9453.0 + 9453.0O_6_5 - 9453.0 + 9453.0Y_6_5;
1.0E_11 >= 60.0X_11_hobsub1 + 60.0X_11_hobsub2 + 60.0X_11_ovensub1 + 60.0X_11_ovensub2 + 1.0E_6 - 9453.0 + 9453.0O_6_11 - 9453.0 + 9453.0Y_6_11;
1.0E_14 >= 600.0X_14_hobsub1 + 600.0X_14_hobsub2 + 600.0X_14_ovensub1 + 600.0X_14_ovensub2 + 1.0E_6 - 9453.0 + 9453.0O_6_14 - 9453.0 + 9453.0Y_6_14;
1.0E_0 >= 10.0 + 1.0E_7 - 9453.0 + 9453.0 - 9453.0 + 9453.0Y_7_0;
1.0E_1 >= 10.0 + 1.0E_7 - 9453.0 + 9453.0 - 9453.0 + 9453.0Y_7_1;
1.0E_2 >= 10.0 + 1.0E_7 - 9453.0 + 9453.0 - 9453.0 + 9453.0Y_7_2;
1.0E_3 >= 7.0 + 1.0E_7 - 9453.0 + 9453.0 - 9453.0 + 9453.0Y_7_3;
1.0E_4 >= 7.0 + 1.0E_7 - 9453.0 + 9453.0 - 9453.0 + 9453.0Y_7_4;
1.0E_8 >= 5.0 + 1.0E_7 - 9453.0 + 9453.0 - 9453.0 + 9453.0Y_7_8;
1.0E_9 >= 10.0 + 1.0E_7 - 9453.0 + 9453.0 - 9453.0 + 9453.0Y_7_9;
1.0E_10 >= 10.0 + 1.0E_7 - 9453.0 + 9453.0 - 9453.0 + 9453.0Y_7_10;
1.0E_12 >= 7.0 + 1.0E_7 - 9453.0 + 9453.0 - 9453.0 + 9453.0Y_7_12;
1.0E_13 >= 7.0 + 1.0E_7 - 9453.0 + 9453.0 - 9453.0 + 9453.0Y_7_13;
1.0E_15 >= 5.0 + 1.0E_7 - 9453.0 + 9453.0 - 9453.0 + 9453.0Y_7_15;
1.0E_0 >= 10.0 + 1.0E_8 - 9453.0 + 9453.0 - 9453.0 + 9453.0Y_8_0;
1.0E_1 >= 10.0 + 1.0E_8 - 9453.0 + 9453.0 - 9453.0 + 9453.0Y_8_1;
1.0E_2 >= 10.0 + 1.0E_8 - 9453.0 + 9453.0 - 9453.0 + 9453.0Y_8_2;
1.0E_3 >= 7.0 + 1.0E_8 - 9453.0 + 9453.0 - 9453.0 + 9453.0Y_8_3;
1.0E_4 >= 7.0 + 1.0E_8 - 9453.0 + 9453.0 - 9453.0 + 9453.0Y_8_4;
1.0E_7 >= 5.0 + 1.0E_8 - 9453.0 + 9453.0 - 9453.0 + 9453.0Y_8_7;
1.0E_9 >= 10.0 + 1.0E_8 - 9453.0 + 9453.0 - 9453.0 + 9453.0Y_8_9;
1.0E_10 >= 10.0 + 1.0E_8 - 9453.0 + 9453.0 - 9453.0 + 9453.0Y_8_10;
1.0E_12 >= 7.0 + 1.0E_8 - 9453.0 + 9453.0 - 9453.0 + 9453.0Y_8_12;
1.0E_13 >= 7.0 + 1.0E_8 - 9453.0 + 9453.0 - 9453.0 + 9453.0Y_8_13;
1.0E_15 >= 5.0 + 1.0E_8 - 9453.0 + 9453.0 - 9453.0 + 9453.0Y_8_15;
1.0E_0 >= 10.0 + 1.0E_9 - 9453.0 + 9453.0 - 9453.0 + 9453.0Y_9_0;
1.0E_1 >= 10.0 + 1.0E_9 - 9453.0 + 9453.0 - 9453.0 + 9453.0Y_9_1;
1.0E_2 >= 10.0 + 1.0E_9 - 9453.0 + 9453.0 - 9453.0 + 9453.0Y_9_2;
1.0E_3 >= 7.0 + 1.0E_9 - 9453.0 + 9453.0 - 9453.0 + 9453.0Y_9_3;
1.0E_4 >= 7.0 + 1.0E_9 - 9453.0 + 9453.0 - 9453.0 + 9453.0Y_9_4;
1.0E_7 >= 5.0 + 1.0E_9 - 9453.0 + 9453.0 - 9453.0 + 9453.0Y_9_7;
1.0E_8 >= 5.0 + 1.0E_9 - 9453.0 + 9453.0 - 9453.0 + 9453.0Y_9_8;
1.0E_10 >= 10.0 + 1.0E_9 - 9453.0 + 9453.0 - 9453.0 + 9453.0Y_9_10;
1.0E_12 >= 7.0 + 1.0E_9 - 9453.0 + 9453.0 - 9453.0 + 9453.0Y_9_12;
1.0E_13 >= 7.0 + 1.0E_9 - 9453.0 + 9453.0 - 9453.0 + 9453.0Y_9_13;
1.0E_15 >= 5.0 + 1.0E_9 - 9453.0 + 9453.0 - 9453.0 + 9453.0Y_9_15;
1.0E_0 >= 10.0 + 1.0E_10 - 9453.0 + 9453.0 - 9453.0 + 9453.0Y_10_0;
1.0E_1 >= 10.0 + 1.0E_10 - 9453.0 + 9453.0 - 9453.0 + 9453.0Y_10_1;
1.0E_2 >= 10.0 + 1.0E_10 - 9453.0 + 9453.0 - 9453.0 + 9453.0Y_10_2;
1.0E_3 >= 7.0 + 1.0E_10 - 9453.0 + 9453.0 - 9453.0 + 9453.0Y_10_3;
1.0E_4 >= 7.0 + 1.0E_10 - 9453.0 + 9453.0 - 9453.0 + 9453.0Y_10_4;
1.0E_7 >= 5.0 + 1.0E_10 - 9453.0 + 9453.0 - 9453.0 + 9453.0Y_10_7;
1.0E_8 >= 5.0 + 1.0E_10 - 9453.0 + 9453.0 - 9453.0 + 9453.0Y_10_8;
1.0E_9 >= 10.0 + 1.0E_10 - 9453.0 + 9453.0 - 9453.0 + 9453.0Y_10_9;
1.0E_12 >= 7.0 + 1.0E_10 - 9453.0 + 9453.0 - 9453.0 + 9453.0Y_10_12;
1.0E_13 >= 7.0 + 1.0E_10 - 9453.0 + 9453.0 - 9453.0 + 9453.0Y_10_13;
1.0E_15 >= 5.0 + 1.0E_10 - 9453.0 + 9453.0 - 9453.0 + 9453.0Y_10_15;
1.0E_5 >= 3600.0X_5_ovensub1 + 3600.0X_5_ovensub2 + 1.0E_11 - 9453.0 + 9453.0O_11_5 - 9453.0 + 9453.0Y_11_5;
1.0E_6 >= 1500.0X_6_ovensub1 + 1500.0X_6_ovensub2 + 1.0E_11 - 9453.0 + 9453.0O_11_6 - 9453.0 + 9453.0Y_11_6;
1.0E_14 >= 600.0X_14_hobsub1 + 600.0X_14_hobsub2 + 600.0X_14_ovensub1 + 600.0X_14_ovensub2 + 1.0E_11 - 9453.0 + 9453.0O_11_14 - 9453.0 + 9453.0Y_11_14;
1.0E_0 >= 10.0 + 1.0E_12 - 9453.0 + 9453.0 - 9453.0 + 9453.0Y_12_0;
1.0E_1 >= 10.0 + 1.0E_12 - 9453.0 + 9453.0 - 9453.0 + 9453.0Y_12_1;
1.0E_2 >= 10.0 + 1.0E_12 - 9453.0 + 9453.0 - 9453.0 + 9453.0Y_12_2;
1.0E_3 >= 7.0 + 1.0E_12 - 9453.0 + 9453.0 - 9453.0 + 9453.0Y_12_3;
1.0E_4 >= 7.0 + 1.0E_12 - 9453.0 + 9453.0 - 9453.0 + 9453.0Y_12_4;
1.0E_7 >= 5.0 + 1.0E_12 - 9453.0 + 9453.0 - 9453.0 + 9453.0Y_12_7;
1.0E_8 >= 5.0 + 1.0E_12 - 9453.0 + 9453.0 - 9453.0 + 9453.0Y_12_8;
1.0E_9 >= 10.0 + 1.0E_12 - 9453.0 + 9453.0 - 9453.0 + 9453.0Y_12_9;
1.0E_10 >= 10.0 + 1.0E_12 - 9453.0 + 9453.0 - 9453.0 + 9453.0Y_12_10;
1.0E_13 >= 7.0 + 1.0E_12 - 9453.0 + 9453.0 - 9453.0 + 9453.0Y_12_13;
1.0E_15 >= 5.0 + 1.0E_12 - 9453.0 + 9453.0 - 9453.0 + 9453.0Y_12_15;
1.0E_0 >= 10.0 + 1.0E_13 - 9453.0 + 9453.0 - 9453.0 + 9453.0Y_13_0;
1.0E_1 >= 10.0 + 1.0E_13 - 9453.0 + 9453.0 - 9453.0 + 9453.0Y_13_1;
1.0E_2 >= 10.0 + 1.0E_13 - 9453.0 + 9453.0 - 9453.0 + 9453.0Y_13_2;
1.0E_3 >= 7.0 + 1.0E_13 - 9453.0 + 9453.0 - 9453.0 + 9453.0Y_13_3;
1.0E_4 >= 7.0 + 1.0E_13 - 9453.0 + 9453.0 - 9453.0 + 9453.0Y_13_4;
1.0E_7 >= 5.0 + 1.0E_13 - 9453.0 + 9453.0 - 9453.0 + 9453.0Y_13_7;
1.0E_8 >= 5.0 + 1.0E_13 - 9453.0 + 9453.0 - 9453.0 + 9453.0Y_13_8;
1.0E_9 >= 10.0 + 1.0E_13 - 9453.0 + 9453.0 - 9453.0 + 9453.0Y_13_9;
1.0E_10 >= 10.0 + 1.0E_13 - 9453.0 + 9453.0 - 9453.0 + 9453.0Y_13_10;
1.0E_12 >= 7.0 + 1.0E_13 - 9453.0 + 9453.0 - 9453.0 + 9453.0Y_13_12;
1.0E_15 >= 5.0 + 1.0E_13 - 9453.0 + 9453.0 - 9453.0 + 9453.0Y_13_15;
1.0E_5 >= 3600.0X_5_ovensub1 + 3600.0X_5_ovensub2 + 1.0E_14 - 9453.0 + 9453.0O_14_5 - 9453.0 + 9453.0Y_14_5;
1.0E_6 >= 1500.0X_6_ovensub1 + 1500.0X_6_ovensub2 + 1.0E_14 - 9453.0 + 9453.0O_14_6 - 9453.0 + 9453.0Y_14_6;
1.0E_11 >= 60.0X_11_hobsub1 + 60.0X_11_hobsub2 + 60.0X_11_ovensub1 + 60.0X_11_ovensub2 + 1.0E_14 - 9453.0 + 9453.0O_14_11 - 9453.0 + 9453.0Y_14_11;
1.0E_0 >= 10.0 + 1.0E_15 - 9453.0 + 9453.0 - 9453.0 + 9453.0Y_15_0;
1.0E_1 >= 10.0 + 1.0E_15 - 9453.0 + 9453.0 - 9453.0 + 9453.0Y_15_1;
1.0E_2 >= 10.0 + 1.0E_15 - 9453.0 + 9453.0 - 9453.0 + 9453.0Y_15_2;
1.0E_3 >= 7.0 + 1.0E_15 - 9453.0 + 9453.0 - 9453.0 + 9453.0Y_15_3;
1.0E_4 >= 7.0 + 1.0E_15 - 9453.0 + 9453.0 - 9453.0 + 9453.0Y_15_4;
1.0E_7 >= 5.0 + 1.0E_15 - 9453.0 + 9453.0 - 9453.0 + 9453.0Y_15_7;
1.0E_8 >= 5.0 + 1.0E_15 - 9453.0 + 9453.0 - 9453.0 + 9453.0Y_15_8;
1.0E_9 >= 10.0 + 1.0E_15 - 9453.0 + 9453.0 - 9453.0 + 9453.0Y_15_9;
1.0E_10 >= 10.0 + 1.0E_15 - 9453.0 + 9453.0 - 9453.0 + 9453.0Y_15_10;
1.0E_12 >= 7.0 + 1.0E_15 - 9453.0 + 9453.0 - 9453.0 + 9453.0Y_15_12;
1.0E_13 >= 7.0 + 1.0E_15 - 9453.0 + 9453.0 - 9453.0 + 9453.0Y_15_13;
bin X_5_ovensub1,X_5_ovensub2,X_6_ovensub1,X_6_ovensub2,X_11_hobsub1,X_11_hobsub2,X_11_ovensub1,X_11_ovensub2,X_14_hobsub1,X_14_hobsub2,X_14_ovensub1,X_14_ovensub2;
bin Y_0_1,Y_0_2,Y_0_3,Y_0_4,Y_0_7,Y_0_8,Y_0_9,Y_0_10,Y_0_12,Y_0_13,Y_0_15,Y_1_0,Y_1_2,Y_1_3,Y_1_4,Y_1_7,Y_1_8,Y_1_9,Y_1_10,Y_1_12,Y_1_13,Y_1_15,Y_2_0,Y_2_1,Y_2_3,Y_2_4,Y_2_7,Y_2_8,Y_2_9,Y_2_10,Y_2_12,Y_2_13,Y_2_15,Y_3_0,Y_3_1,Y_3_2,Y_3_4,Y_3_7,Y_3_8,Y_3_9,Y_3_10,Y_3_12,Y_3_13,Y_3_15,Y_4_0,Y_4_1,Y_4_2,Y_4_3,Y_4_7,Y_4_8,Y_4_9,Y_4_10,Y_4_12,Y_4_13,Y_4_15,Y_5_6,Y_5_11,Y_5_14,Y_6_5,Y_6_11,Y_6_14,Y_7_0,Y_7_1,Y_7_2,Y_7_3,Y_7_4,Y_7_8,Y_7_9,Y_7_10,Y_7_12,Y_7_13,Y_7_15,Y_8_0,Y_8_1,Y_8_2,Y_8_3,Y_8_4,Y_8_7,Y_8_9,Y_8_10,Y_8_12,Y_8_13,Y_8_15,Y_9_0,Y_9_1,Y_9_2,Y_9_3,Y_9_4,Y_9_7,Y_9_8,Y_9_10,Y_9_12,Y_9_13,Y_9_15,Y_10_0,Y_10_1,Y_10_2,Y_10_3,Y_10_4,Y_10_7,Y_10_8,Y_10_9,Y_10_12,Y_10_13,Y_10_15,Y_11_5,Y_11_6,Y_11_14,Y_12_0,Y_12_1,Y_12_2,Y_12_3,Y_12_4,Y_12_7,Y_12_8,Y_12_9,Y_12_10,Y_12_13,Y_12_15,Y_13_0,Y_13_1,Y_13_2,Y_13_3,Y_13_4,Y_13_7,Y_13_8,Y_13_9,Y_13_10,Y_13_12,Y_13_15,Y_14_5,Y_14_6,Y_14_11,Y_15_0,Y_15_1,Y_15_2,Y_15_3,Y_15_4,Y_15_7,Y_15_8,Y_15_9,Y_15_10,Y_15_12,Y_15_13;
bin O_5_6,O_5_11,O_5_14,O_6_5,O_6_11,O_6_14,O_11_5,O_11_6,O_11_14,O_14_5,O_14_6,O_14_11;